c Lines that start with a c are comments. There is one line at the start
c which starts with either "p edge" or "p col", followed by the number of
c vertices and the (possibly incorrect) number of edges. The e lines each
c describe an edge. Some files have blank lines.
p edge 7 11
e 1 2
e 1 3
e 2 3
e 3 4
e 3 5
e 4 5
e 4 6 
e 6 7
e 7 5
e 5 6
e 4 7